p tw 115 122
1 2
2 28
3 14
4 5
5 6
6 7
7 8
8 9
9 10
10 11
11 12
12 13
13 63
14 20
15 16
16 17
17 18
18 19
20 21
21 22
22 23
23 24
24 25
25 26
26 27
27 29
28 39
29 30
30 31
31 32
32 33
32 37
33 34
34 35
35 36
36 37
36 52
37 38
38 40
39 50
40 41
41 42
42 43
43 44
44 45
45 46
46 47
47 48
48 49
49 51
50 61
51 18
52 53
53 54
54 55
55 56
56 57
57 58
58 59
59 60
60 62
61 72
62 63
63 64
64 65
65 66
66 67
67 68
67 71
68 69
69 70
70 71
70 74
71 73
72 83
72 3
73 18
74 75
75 76
76 77
77 78
78 79
79 80
80 81
81 82
82 84
82 86
83 94
84 85
85 18
86 87
87 88
88 89
88 63
89 90
90 91
91 92
92 93
93 95
94 105
94 66
95 96
96 97
97 98
98 99
99 100
100 101
101 102
102 103
103 104
104 106
105 15
106 107
107 108
108 109
109 110
110 111
111 112
112 113
113 114
114 115
115 4
